
Gurobi 9.5.1 (linux64) logging started Wed Jun  8 12:08:57 2022

Set parameter LogFile to value "../results/logs/log_soc-catster.e_21_250_2022_06_08_10_07.log"
Gurobi Optimizer version 9.5.1 build v9.5.1rc2 (linux64)
Thread count: 8 physical cores, 8 logical processors, using up to 8 threads
Optimize a model with 4007 rows, 299368 columns and 167530 nonzeros
Model fingerprint: 0x27febbe5
Variable types: 0 continuous, 299368 integer (299368 binary)
Coefficient statistics:
  Matrix range     [1e+00, 2e+01]
  Objective range  [1e+00, 1e+00]
  Bounds range     [1e+00, 1e+00]
  RHS range        [1e+00, 2e+02]

User MIP start produced solution with objective 79400 (0.08s)
Loaded user MIP start with objective 79400

Presolve removed 2747 rows and 297387 columns
Presolve time: 0.12s
Presolved: 1260 rows, 1981 columns, 6294 nonzeros
Found heuristic solution: objective 79499.000000
Variable types: 0 continuous, 1981 integer (1599 binary)

Root relaxation: objective 7.966885e+04, 853 iterations, 0.00 seconds (0.00 work units)

    Nodes    |    Current Node    |     Objective Bounds      |     Work
 Expl Unexpl |  Obj  Depth IntInf | Incumbent    BestBd   Gap | It/Node Time

     0     0 79668.8536    0  434 79499.0000 79668.8536  0.21%     -    0s
H    0     0                    79506.000000 79668.8536  0.20%     -    0s
     0     0 79576.3007    0  149 79506.0000 79576.3007  0.09%     -    0s
H    0     0                    79547.000000 79576.3007  0.04%     -    0s
     0     0 79572.2398    0  127 79547.0000 79572.2398  0.03%     -    0s
     0     0 79571.9588    0  124 79547.0000 79571.9588  0.03%     -    0s
     0     0 79571.8483    0  126 79547.0000 79571.8483  0.03%     -    0s
     0     0 79571.8098    0  128 79547.0000 79571.8098  0.03%     -    0s
H    0     0                    79552.000000 79564.3225  0.02%     -    0s
     0     0 79564.3225    0   66 79552.0000 79564.3225  0.02%     -    0s
     0     0 79563.7706    0   51 79552.0000 79563.7706  0.01%     -    0s
     0     0 79563.7257    0   51 79552.0000 79563.7257  0.01%     -    0s
H    0     0                    79559.000000 79562.4438  0.00%     -    0s
     0     0 79562.4438    0   47 79559.0000 79562.4438  0.00%     -    0s
     0     0 79562.2189    0   38 79559.0000 79562.2189  0.00%     -    0s
     0     0 79562.2091    0   40 79559.0000 79562.2091  0.00%     -    0s
H    0     0                    79560.000000 79562.2091  0.00%     -    0s
     0     0 79561.9001    0   21 79560.0000 79561.9001  0.00%     -    0s
     0     0 79561.8958    0   21 79560.0000 79561.8958  0.00%     -    0s
     0     0 79561.8916    0   21 79560.0000 79561.8916  0.00%     -    0s
     0     0 79561.8916    0  179 79560.0000 79561.8916  0.00%     -    0s
     0     0 79561.8916    0   52 79560.0000 79561.8916  0.00%     -    0s
H    0     0                    79561.000000 79561.8916  0.00%     -    0s

Cutting planes:
  Gomory: 48
  Cover: 1
  Implied bound: 15
  MIR: 77
  StrongCG: 4
  GUB cover: 23
  Zero half: 5
  RLT: 6
  Relax-and-lift: 3

Explored 1 nodes (2333 simplex iterations) in 0.56 seconds (0.32 work units)
Thread count was 8 (of 8 available processors)

Solution count 10: 79561 79560 79559 ... 79499

Optimal solution found (tolerance 0.00e+00)
Best objective 7.956100000000e+04, best bound 7.956100000000e+04, gap 0.0000%
